<number of tasks>
28

<cycle time>
138

<task times>
1 70
2 59
3 33
4 6
5 1
6 27
7 17
8 62
9 31
10 53
11 21
12 19
13 108
14 52
15 5
16 8
17 97
18 8
19 47
20 67
21 17
22 8
23 3
24 21
25 107
26 3
27 2
28 72

<precedence relations>
1,2
1,3
1,4
1,5
1,8
1,19
1,21
1,22
1,23
1,24
1,26
2,6
2,17
3,28
4,28
5,28
6,7
7,18
8,9
9,10
10,11
10,12
11,15
12,13
13,14
13,16
14,28
15,28
16,28
17,28
18,28
19,20
20,28
21,28
22,28
23,28
24,25
25,28
26,27
27,28

<setup times forward>
1,2:3
1,3:2
1,5:3
1,19:3
1,21:1
1,22:1
1,23:2
1,24:2
1,26:2
2,3:5
2,4:3
2,5:6
2,6:5
2,8:3
2,10:5
2,11:3
2,12:5
2,13:3
2,14:6
2,15:6
2,16:6
2,17:5
2,20:2
2,21:2
2,22:2
2,23:5
2,24:5
2,25:2
2,26:5
2,27:5
3,2:5
3,4:2
3,5:1
3,8:2
3,9:5
3,11:2
3,13:2
3,14:1
3,15:1
3,16:1
3,18:2
3,19:5
3,20:3
3,21:3
3,22:3
3,25:3
3,28:1
4,2:3
4,3:2
4,5:3
4,6:2
4,7:2
4,9:3
4,10:2
4,12:2
4,14:3
4,15:3
4,16:3
4,17:2
4,19:3
4,20:1
4,21:1
4,22:1
4,23:2
4,24:2
4,25:1
4,26:2
4,27:2
4,28:3
5,2:6
5,3:1
5,4:3
5,6:1
5,7:1
5,8:3
5,9:6
5,10:1
5,11:3
5,12:1
5,13:3
5,17:1
5,18:3
5,19:6
5,20:4
5,21:4
5,22:4
5,23:1
5,24:1
5,25:4
5,26:1
5,27:1
6,4:2
6,5:1
6,8:2
6,9:5
6,11:2
6,13:2
6,14:1
6,15:1
6,16:1
6,19:5
6,20:3
6,21:3
6,22:3
6,25:3
7,4:2
7,5:1
7,8:2
7,9:5
7,11:2
7,13:2
7,14:1
7,15:1
7,16:1
7,18:2
7,19:5
7,20:3
7,21:3
7,22:3
7,25:3
8,2:3
8,3:2
8,5:3
8,6:2
8,7:2
8,9:3
8,17:2
8,19:3
8,20:1
8,21:1
8,22:1
8,23:2
8,24:2
8,25:1
8,26:2
8,27:2
9,3:5
9,4:3
9,5:6
9,6:5
9,7:5
9,10:5
9,17:5
9,18:3
9,20:2
9,21:2
9,22:2
9,23:5
9,24:5
9,25:2
9,26:5
9,27:5
10,2:5
10,4:2
10,5:1
10,11:2
10,18:2
10,19:5
10,20:3
10,21:3
10,22:3
10,25:3
11,2:3
11,3:2
11,5:3
11,6:2
11,7:2
11,12:2
11,14:3
11,15:3
11,16:3
11,17:2
11,19:3
11,20:1
11,21:1
11,22:1
11,23:2
11,24:2
11,25:1
11,26:2
11,27:2
12,2:5
12,4:2
12,5:1
12,11:2
12,13:2
12,15:1
12,18:2
12,19:5
12,20:3
12,21:3
12,22:3
12,25:3
13,2:3
13,3:2
13,5:3
13,6:2
13,7:2
13,14:3
13,15:3
13,16:3
13,17:2
13,19:3
13,20:1
13,21:1
13,22:1
13,23:2
13,24:2
13,25:1
13,26:2
13,27:2
14,2:6
14,3:1
14,4:3
14,6:1
14,7:1
14,11:3
14,17:1
14,18:3
14,19:6
14,20:4
14,21:4
14,22:4
14,23:1
14,24:1
14,25:4
14,26:1
14,27:1
15,2:6
15,3:1
15,4:3
15,6:1
15,7:1
15,12:1
15,13:3
15,17:1
15,18:3
15,19:6
15,20:4
15,21:4
15,22:4
15,23:1
15,24:1
15,25:4
15,26:1
15,27:1
16,2:6
16,3:1
16,4:3
16,6:1
16,7:1
16,11:3
16,17:1
16,18:3
16,19:6
16,20:4
16,21:4
16,22:4
16,23:1
16,24:1
16,25:4
16,26:1
16,27:1
17,4:2
17,5:1
17,8:2
17,9:5
17,11:2
17,13:2
17,14:1
17,15:1
17,16:1
17,18:2
17,19:5
17,20:3
17,21:3
17,22:3
17,25:3
17,28:1
18,3:2
18,5:3
18,9:3
18,10:2
18,12:2
18,14:3
18,15:3
18,16:3
18,17:2
18,19:3
18,20:1
18,21:1
18,22:1
18,23:2
18,24:2
18,25:1
18,26:2
18,27:2
18,28:3
19,3:5
19,4:3
19,5:6
19,6:5
19,7:5
19,8:3
19,10:5
19,11:3
19,12:5
19,13:3
19,14:6
19,15:6
19,16:6
19,17:5
19,18:3
19,20:2
19,21:2
19,22:2
19,23:5
19,24:5
19,25:2
19,26:5
19,27:5
20,2:2
20,3:3
20,4:1
20,5:4
20,6:3
20,7:3
20,8:1
20,9:2
20,10:3
20,11:1
20,12:3
20,13:1
20,14:4
20,15:4
20,16:4
20,17:3
20,18:1
20,23:3
20,24:3
20,26:3
20,27:3
20,28:4
21,2:2
21,3:3
21,4:1
21,5:4
21,6:3
21,7:3
21,8:1
21,9:2
21,10:3
21,11:1
21,12:3
21,13:1
21,14:4
21,15:4
21,16:4
21,17:3
21,18:1
21,19:2
21,23:3
21,24:3
21,26:3
21,27:3
21,28:4
22,2:2
22,3:3
22,4:1
22,5:4
22,6:3
22,7:3
22,8:1
22,9:2
22,10:3
22,11:1
22,12:3
22,13:1
22,14:4
22,15:4
22,16:4
22,17:3
22,18:1
22,19:2
22,23:3
22,24:3
22,26:3
22,27:3
22,28:4
23,2:5
23,4:2
23,5:1
23,8:2
23,9:5
23,11:2
23,13:2
23,14:1
23,15:1
23,16:1
23,18:2
23,19:5
23,20:3
23,21:3
23,22:3
23,25:3
23,28:1
24,2:5
24,4:2
24,5:1
24,8:2
24,9:5
24,11:2
24,13:2
24,14:1
24,15:1
24,16:1
24,18:2
24,19:5
24,20:3
24,21:3
24,22:3
24,25:3
25,2:2
25,3:3
25,4:1
25,5:4
25,6:3
25,7:3
25,8:1
25,9:2
25,10:3
25,11:1
25,12:3
25,13:1
25,14:4
25,15:4
25,16:4
25,17:3
25,18:1
25,19:2
25,23:3
25,26:3
25,27:3
25,28:4
26,2:5
26,4:2
26,5:1
26,8:2
26,9:5
26,11:2
26,13:2
26,14:1
26,15:1
26,16:1
26,18:2
26,19:5
26,20:3
26,21:3
26,22:3
26,25:3
27,2:5
27,4:2
27,5:1
27,8:2
27,9:5
27,11:2
27,13:2
27,14:1
27,15:1
27,16:1
27,18:2
27,19:5
27,20:3
27,21:3
27,22:3
27,25:3
27,28:1

<setup times backward>
2,1:3
2,3:5
2,4:3
2,5:6
2,8:3
2,10:5
2,11:3
2,12:5
2,13:3
2,14:6
2,15:6
2,16:6
2,20:2
2,21:2
2,22:2
2,23:5
2,24:5
2,25:2
2,26:5
2,27:5
3,5:1
3,14:1
3,15:1
3,16:1
4,3:2
4,5:3
4,6:2
4,7:2
4,10:2
4,12:2
4,14:3
4,15:3
4,16:3
4,17:2
4,23:2
4,24:2
4,26:2
4,27:2
6,5:1
6,14:1
6,15:1
6,16:1
7,5:1
7,14:1
7,15:1
7,16:1
8,3:2
8,5:3
8,6:2
8,7:2
8,17:2
8,23:2
8,24:2
8,26:2
8,27:2
9,1:3
9,3:5
9,4:3
9,5:6
9,6:5
9,7:5
9,8:3
9,17:5
9,18:3
9,20:2
9,21:2
9,22:2
9,23:5
9,24:5
9,25:2
9,26:5
9,27:5
10,5:1
11,3:2
11,5:3
11,6:2
11,7:2
11,10:2
11,12:2
11,14:3
11,16:3
11,17:2
11,23:2
11,24:2
11,26:2
11,27:2
12,5:1
12,15:1
13,3:2
13,5:3
13,6:2
13,7:2
13,10:2
13,12:2
13,15:3
13,17:2
13,23:2
13,24:2
13,26:2
13,27:2
17,5:1
17,14:1
17,15:1
17,16:1
18,3:2
18,5:3
18,6:2
18,7:2
18,10:2
18,12:2
18,14:3
18,15:3
18,16:3
18,17:2
18,23:2
18,24:2
18,26:2
18,27:2
19,1:3
19,3:5
19,4:3
19,5:6
19,6:5
19,7:5
19,8:3
19,10:5
19,11:3
19,12:5
19,13:3
19,14:6
19,15:6
19,16:6
19,17:5
19,18:3
19,21:2
19,22:2
19,23:5
19,24:5
19,25:2
19,26:5
19,27:5
20,1:1
20,3:3
20,4:1
20,5:4
20,6:3
20,7:3
20,8:1
20,10:3
20,11:1
20,12:3
20,13:1
20,14:4
20,15:4
20,16:4
20,17:3
20,18:1
20,23:3
20,24:3
20,26:3
20,27:3
21,1:1
21,3:3
21,4:1
21,5:4
21,6:3
21,7:3
21,8:1
21,10:3
21,11:1
21,12:3
21,13:1
21,14:4
21,15:4
21,16:4
21,17:3
21,18:1
21,23:3
21,24:3
21,26:3
21,27:3
22,1:1
22,3:3
22,4:1
22,5:4
22,6:3
22,7:3
22,8:1
22,10:3
22,11:1
22,12:3
22,13:1
22,14:4
22,15:4
22,16:4
22,17:3
22,18:1
22,23:3
22,24:3
22,26:3
22,27:3
23,5:1
23,14:1
23,15:1
23,16:1
24,5:1
24,14:1
24,15:1
24,16:1
25,1:1
25,3:3
25,4:1
25,5:4
25,6:3
25,7:3
25,8:1
25,10:3
25,11:1
25,12:3
25,13:1
25,14:4
25,15:4
25,16:4
25,17:3
25,18:1
25,23:3
25,24:3
25,26:3
25,27:3
26,5:1
26,14:1
26,15:1
26,16:1
27,5:1
27,14:1
27,15:1
27,16:1

<end>

<optimal SALBP-1 value>
8


<rand seed>
467321153

<Lower Bounds>
Lm1=8
Lms1=8
Lm2=5
Lm3=7
Lm4=8
Best=8

<Optimal Stations (Iterations: 10)>
9
